NAME: clu_25_2
TYPE: TSP
DIMENSION: 25
EDGE_WEIGHT_TYPE: EUC_2D
NODE_COORD_SECTION
1 18 -3
2 18 23
3 103 95
4 18 16
5 -2 19
6 83 77
7 -5 2
8 94 87
9 102 58
10 93 74
11 97 83
12 24 6
13 91 6
14 100 60
15 26 23
16 87 0
17 21 25
18 23 18
19 35 0
20 77 24
21 74 -3
22 104 85
23 29 22
24 39 22
25 26 13
EOF
